Route #1: 89 60 5 61 16 86 38 14 44 91 100 98 92
Route #2: 94 95 97 37 85 93 59 99 96 6
Route #3: 53 58 2 73 72 74 22 41 57 15 43 42 87 13
Route #4: 40 21 4 56 75 23 67 39 25 55 54 26
Route #5: 12 80 68 24 29 34 78 79 3 77 76 28
Route #6: 69 1 70 30 20 66 65 71 35 9 51 81 33 50
Route #7: 52 7 82 48 47 19 11 62 88
Route #8: 27 31 10 32 90 63 64 49 36 46 8 45 17 84 83 18
Cost 820
Time 0.142321
